c Software verification instances generated by
c Calysto static checker. For more information
c contact Domagoj Babic.
c Location in code: /work/benchmarks/SOURCES/gzip-1.2.4/gzip.c:1531

p cnf 363 565
1 0
-2 0
-35 0
-36 0
-37 0
-38 0
-39 0
-40 0
-41 0
-42 0
-43 0
-44 0
-45 0
-46 0
-47 0
-48 0
-49 0
-50 0
-51 0
-52 0
-53 0
-54 0
-55 0
-56 0
-57 0
-58 0
-59 0
-60 0
-61 0
-62 0
-63 0
-64 0
-65 0
-66 0
-133 0
-134 0
-135 0
-136 0
-137 0
-138 0
-139 0
-140 0
-141 0
-142 0
-143 0
-144 0
-145 0
-146 0
-147 0
-148 0
-149 0
-150 0
-151 0
-152 0
-153 0
-154 0
-155 0
-156 0
-157 0
-158 0
-159 0
-160 0
-161 0
-162 0
-163 0
-164 0
-363 0
3 69 0
-3 -69 0
4 70 0
-4 -70 0
5 71 0
-5 -71 0
6 72 0
-6 -72 0
7 73 0
-7 -73 0
8 74 0
-8 -74 0
9 75 0
-9 -75 0
10 76 0
-10 -76 0
11 77 0
-11 -77 0
12 78 0
-12 -78 0
13 79 0
-13 -79 0
14 80 0
-14 -80 0
15 81 0
-15 -81 0
16 82 0
-16 -82 0
17 83 0
-17 -83 0
18 84 0
-18 -84 0
19 85 0
-19 -85 0
20 86 0
-20 -86 0
21 87 0
-21 -87 0
22 88 0
-22 -88 0
23 89 0
-23 -89 0
24 90 0
-24 -90 0
25 91 0
-25 -91 0
26 92 0
-26 -92 0
27 93 0
-27 -93 0
28 94 0
-28 -94 0
29 95 0
-29 -95 0
30 96 0
-30 -96 0
31 97 0
-31 -97 0
32 98 0
-32 -98 0
33 99 0
-33 -99 0
34 100 0
-34 -100 0
-69 101 0
69 -101 0
-70 -101 102 0
101 -102 0
70 -102 0
-71 -102 103 0
102 -103 0
71 -103 0
-72 -103 104 0
103 -104 0
72 -104 0
-73 -104 105 0
104 -105 0
73 -105 0
-74 -105 106 0
105 -106 0
74 -106 0
-75 -106 107 0
106 -107 0
75 -107 0
-76 -107 108 0
107 -108 0
76 -108 0
-77 -108 109 0
108 -109 0
77 -109 0
-78 -109 110 0
109 -110 0
78 -110 0
-79 -110 111 0
110 -111 0
79 -111 0
-80 -111 112 0
111 -112 0
80 -112 0
-81 -112 113 0
112 -113 0
81 -113 0
-82 -113 114 0
113 -114 0
82 -114 0
-83 -114 115 0
114 -115 0
83 -115 0
-84 -115 116 0
115 -116 0
84 -116 0
-85 -116 117 0
116 -117 0
85 -117 0
-86 -117 118 0
117 -118 0
86 -118 0
-87 -118 119 0
118 -119 0
87 -119 0
-88 -119 120 0
119 -120 0
88 -120 0
-89 -120 121 0
120 -121 0
89 -121 0
-90 -121 122 0
121 -122 0
90 -122 0
-91 -122 123 0
122 -123 0
91 -123 0
-92 -123 124 0
123 -124 0
92 -124 0
-93 -124 125 0
124 -125 0
93 -125 0
-94 -125 126 0
125 -126 0
94 -126 0
-95 -126 127 0
126 -127 0
95 -127 0
-96 -127 128 0
127 -128 0
96 -128 0
-97 -128 129 0
128 -129 0
97 -129 0
-98 -129 130 0
129 -130 0
98 -130 0
-99 -130 131 0
130 -131 0
99 -131 0
-100 -131 132 0
131 -132 0
100 -132 0
-68 132 0
68 -132 0
67 68 0
-67 -68 0
165 199 0
-165 -199 0
166 200 0
-166 -200 0
167 201 0
-167 -201 0
168 202 0
-168 -202 0
169 203 0
-169 -203 0
170 204 0
-170 -204 0
171 205 0
-171 -205 0
172 206 0
-172 -206 0
173 207 0
-173 -207 0
174 208 0
-174 -208 0
175 209 0
-175 -209 0
176 210 0
-176 -210 0
177 211 0
-177 -211 0
178 212 0
-178 -212 0
179 213 0
-179 -213 0
180 214 0
-180 -214 0
181 215 0
-181 -215 0
182 216 0
-182 -216 0
183 217 0
-183 -217 0
184 218 0
-184 -218 0
185 219 0
-185 -219 0
186 220 0
-186 -220 0
187 221 0
-187 -221 0
188 222 0
-188 -222 0
189 223 0
-189 -223 0
190 224 0
-190 -224 0
191 225 0
-191 -225 0
192 226 0
-192 -226 0
193 227 0
-193 -227 0
194 228 0
-194 -228 0
195 229 0
-195 -229 0
196 230 0
-196 -230 0
-199 231 0
199 -231 0
-200 -231 232 0
231 -232 0
200 -232 0
-201 -232 233 0
232 -233 0
201 -233 0
-202 -233 234 0
233 -234 0
202 -234 0
-203 -234 235 0
234 -235 0
203 -235 0
-204 -235 236 0
235 -236 0
204 -236 0
-205 -236 237 0
236 -237 0
205 -237 0
-206 -237 238 0
237 -238 0
206 -238 0
-207 -238 239 0
238 -239 0
207 -239 0
-208 -239 240 0
239 -240 0
208 -240 0
-209 -240 241 0
240 -241 0
209 -241 0
-210 -241 242 0
241 -242 0
210 -242 0
-211 -242 243 0
242 -243 0
211 -243 0
-212 -243 244 0
243 -244 0
212 -244 0
-213 -244 245 0
244 -245 0
213 -245 0
-214 -245 246 0
245 -246 0
214 -246 0
-215 -246 247 0
246 -247 0
215 -247 0
-216 -247 248 0
247 -248 0
216 -248 0
-217 -248 249 0
248 -249 0
217 -249 0
-218 -249 250 0
249 -250 0
218 -250 0
-219 -250 251 0
250 -251 0
219 -251 0
-220 -251 252 0
251 -252 0
220 -252 0
-221 -252 253 0
252 -253 0
221 -253 0
-222 -253 254 0
253 -254 0
222 -254 0
-223 -254 255 0
254 -255 0
223 -255 0
-224 -255 256 0
255 -256 0
224 -256 0
-225 -256 257 0
256 -257 0
225 -257 0
-226 -257 258 0
257 -258 0
226 -258 0
-227 -258 259 0
258 -259 0
227 -259 0
-228 -259 260 0
259 -260 0
228 -260 0
-229 -260 261 0
260 -261 0
229 -261 0
-230 -261 262 0
261 -262 0
230 -262 0
-198 262 0
198 -262 0
197 198 0
-197 -198 0
-67 -197 263 0
67 -263 0
197 -263 0
264 298 0
-264 -298 0
265 299 0
-265 -299 0
266 300 0
-266 -300 0
267 301 0
-267 -301 0
268 302 0
-268 -302 0
269 303 0
-269 -303 0
270 304 0
-270 -304 0
271 305 0
-271 -305 0
272 306 0
-272 -306 0
273 307 0
-273 -307 0
274 308 0
-274 -308 0
275 309 0
-275 -309 0
276 310 0
-276 -310 0
277 311 0
-277 -311 0
278 312 0
-278 -312 0
279 313 0
-279 -313 0
280 314 0
-280 -314 0
281 315 0
-281 -315 0
282 316 0
-282 -316 0
283 317 0
-283 -317 0
284 318 0
-284 -318 0
285 319 0
-285 -319 0
286 320 0
-286 -320 0
287 321 0
-287 -321 0
288 322 0
-288 -322 0
289 323 0
-289 -323 0
290 324 0
-290 -324 0
291 325 0
-291 -325 0
292 326 0
-292 -326 0
293 327 0
-293 -327 0
294 328 0
-294 -328 0
295 329 0
-295 -329 0
-298 330 0
298 -330 0
-299 -330 331 0
330 -331 0
299 -331 0
-300 -331 332 0
331 -332 0
300 -332 0
-301 -332 333 0
332 -333 0
301 -333 0
-302 -333 334 0
333 -334 0
302 -334 0
-303 -334 335 0
334 -335 0
303 -335 0
-304 -335 336 0
335 -336 0
304 -336 0
-305 -336 337 0
336 -337 0
305 -337 0
-306 -337 338 0
337 -338 0
306 -338 0
-307 -338 339 0
338 -339 0
307 -339 0
-308 -339 340 0
339 -340 0
308 -340 0
-309 -340 341 0
340 -341 0
309 -341 0
-310 -341 342 0
341 -342 0
310 -342 0
-311 -342 343 0
342 -343 0
311 -343 0
-312 -343 344 0
343 -344 0
312 -344 0
-313 -344 345 0
344 -345 0
313 -345 0
-314 -345 346 0
345 -346 0
314 -346 0
-315 -346 347 0
346 -347 0
315 -347 0
-316 -347 348 0
347 -348 0
316 -348 0
-317 -348 349 0
348 -349 0
317 -349 0
-318 -349 350 0
349 -350 0
318 -350 0
-319 -350 351 0
350 -351 0
319 -351 0
-320 -351 352 0
351 -352 0
320 -352 0
-321 -352 353 0
352 -353 0
321 -353 0
-322 -353 354 0
353 -354 0
322 -354 0
-323 -354 355 0
354 -355 0
323 -355 0
-324 -355 356 0
355 -356 0
324 -356 0
-325 -356 357 0
356 -357 0
325 -357 0
-326 -357 358 0
357 -358 0
326 -358 0
-327 -358 359 0
358 -359 0
327 -359 0
-328 -359 360 0
359 -360 0
328 -360 0
-329 -360 361 0
360 -361 0
329 -361 0
-297 361 0
297 -361 0
296 297 0
-296 -297 0
-263 -296 362 0
263 -362 0
296 -362 0
362 363 0
-296 363 0
296 -362 -363 0
